Input: ticf-13crafa.prec25.dzn
============================================================
Total Runtime: 2.2488 seconds
Input parsing: 0.0007 seconds
Constraint building: 0.5742 seconds
MaxSAT solving: 1.2904 seconds
============================================================

Total variables: 182834
Total clauses: 383768
MaxSAT found with cost: 0
NO SOLUTION FOUND
